5 5
7 3 4 10 3 10 1 10 2 3 10 5 17 4 5 5 2 15 3 9 1 14 3 5 17 3 7 2 4 1 5 6 1 1 6 3 2 10 4 17 3 16
6 4 1 10 5 17 4 20 2 2 3 5 2 2 14 1 18 1 5 5 4 5 2 3 2 1 19 2 7 2 4 12 3 6 1 3 6
4 1 4 18 1 4 13 3 5 17 2 5 1 16 2 1 2 2 4
8 4 4 16 1 8 5 9 3 13 5 3 8 2 8 5 7 1 18 4 15 1 3 19 1 4 6 2 5 13 4 8 4 3 6 5 11 4 19 2 18 2 1 13 3 10 1 1 9
4 2 3 11 2 11 5 4 7 3 18 5 4 1 17 2 5 1 1 12 2 2 17 4 10